; QF_LIA benchmark: system_13
(set-logic QF_LIA)
(declare-fun v0 () Int)
(declare-fun v1 () Int)
(declare-fun v2 () Int)
(declare-fun v3 () Int)
(assert (= (+ (* -2 v0) (* 5 v1) (* -2 v2) (* 4 v3)) -18))
(assert (= (+ (* 5 v0) (* 5 v1) (* -3 v2) (* 5 v3)) -38))
(assert (= (+ (* 5 v0) (* -5 v1) (* -1 v2) (* 2 v3)) -46))
(assert (= (+ (* -3 v1) (* -4 v2) (* -1 v3)) -9))
(assert (= (+ (* 1 v0) (* -3 v1) (* -2 v2) (* -3 v3)) 50))
(assert (<= (+ (* 3 v1) (* 3 v2) (* -1 v3)) -29))
(check-sat)
(exit)
